2000 500 
3250 500 
4500 500 
5750 500 
7000 500 
2000 1750 
3250 1750 
4500 1750
5750 1750 
7000 1750 
2000 3000 
3250 3000 
4500 3000 
5750 3000 
7000 3000 
2000 4250 
3250 4250 
4500 4250 
5750 4250 
7000 4250 
2000 5500 
3250 5500 
4500 5500 
5750 5500 
7000 5500